p wcnf 8 24 113
113 1 2 0
113 1 5 0
113 1 6 0
113 1 7 0
113 2 4 0
113 2 6 0
113 2 7 0
113 3 5 0
113 3 6 0
113 3 7 0
113 3 8 0
113 4 5 0
113 4 6 0
113 5 6 0
113 5 8 0
113 6 7 0
12 -1 0
12 -2 0
12 -3 0
13 -4 0
11 -5 0
10 -6 0
12 -7 0
14 -8 0
